Set parameter TokenServer to value "hpc-licenses.hpcc.usc.edu"
Set parameter TimeLimit to value 3600
Gurobi Optimizer version 9.5.1 build v9.5.1rc2 (linux64)
Thread count: 20 physical cores, 20 logical processors, using up to 20 threads
Optimize a model with 6007 rows, 4529 columns and 24534 nonzeros
Model fingerprint: 0xbb389dfc
Variable types: 4506 continuous, 23 integer (23 binary)
Coefficient statistics:
  Matrix range     [1e+00, 1e+00]
  Objective range  [4e-03, 1e+00]
  Bounds range     [1e+00, 1e+00]
  RHS range        [1e+00, 8e+01]
Presolve removed 1514 rows and 1511 columns
Presolve time: 0.09s
Presolved: 4493 rows, 3018 columns, 21993 nonzeros
Variable types: 2998 continuous, 20 integer (20 binary)
Found heuristic solution: objective 296.7581260

Root relaxation: objective 3.000159e+02, 2254 iterations, 0.13 seconds (0.12 work units)

    Nodes    |    Current Node    |     Objective Bounds      |     Work
 Expl Unexpl |  Obj  Depth IntInf | Incumbent    BestBd   Gap | It/Node Time

     0     0  300.01586    0    3  296.75813  300.01586  1.10%     -    0s
     0     0  299.94857    0    4  296.75813  299.94857  1.08%     -    0s
     0     0  299.93945    0    5  296.75813  299.93945  1.07%     -    0s
H    0     0                     299.5721098  299.93945  0.12%     -    0s
     0     0  299.93368    0    5  299.57211  299.93368  0.12%     -    0s
     0     0  299.93368    0    3  299.57211  299.93368  0.12%     -    1s
H    0     0                     299.6344150  299.93368  0.10%     -    1s
     0     0  299.63441    0    5  299.63441  299.63441  0.00%     -    1s

Cutting planes:
  Gomory: 3
  MIR: 339
  Flow cover: 2
  RLT: 9
  Relax-and-lift: 3

Explored 1 nodes (4302 simplex iterations) in 1.58 seconds (0.59 work units)
Thread count was 20 (of 20 available processors)

Solution count 3: 299.634 299.572 296.758 

Optimal solution found (tolerance 1.00e-04)
Best objective 2.996344149658e+02, best bound 2.996344149658e+02, gap 0.0000%



#########node  1
V1.9
#########node  2
0.0,1.0
#########node  3
1.0,0.0


Total Solving Time 1.9934165477752686
obj value 299.63441496579486
Policy Regret train (Sum) 1.2671902492705043
Best Treatment Found train (%) 86.2
treatment classification acc train (%) 47.4
Policy Regret test (Sum) 171.4960881571544
Best Treatment Found test (%) 52.800000000000004
treatment classification acc test (%) 50.54
